NAME : instances/clustered-mixed-tsp/instance-9.tsp
COMMENT : No Comment
TYPE : TSP
DIMENSION: 41
EDGE_WEIGHT_TYPE : EUC_2D
NODE_COORD_SECTION
1 1957 197 
2 1823 649 
3 627 49 
4 1922 900 
5 214 485 
6 1819 907 
7 984 320 
8 606 978 
9 1147 1981 
10 1008 1585 
11 267 967 
12 1147 891 
13 824 454 
14 582 1098 
15 42 902 
16 1056 1197 
17 673 1425 
18 1628 1993 
19 184 1474 
20 151 603 
21 951 237 
22 1798 783 
23 1217 449 
24 1145 284 
25 646 1104 
26 1890 595 
27 427 292 
28 68 1861 
29 195 983 
30 1117 725 
31 1307 490 
32 1759 1293 
33 292 300 
34 1208 1802 
35 1772 1091 
36 788 240 
37 1894 708 
38 1199 1942 
39 1534 674 
40 618 566 
41 518 1808 
EOF
